\ENCODING=ISO-8859-1
\Problem name: ilog.cplex

Minimize
 obj1: - 7.16450241032342e-10 x(0,0,0,0) - 0.00000737935765426911 x(0,0,0,1)
       - 0.000881175217861796 x(0,0,0,2) - 7.34601880828882e-10 x(1,0,0,2)
       - 0.0144247917622079 x(0,0,0,3) - 4.31685308599059e-9 x(1,0,0,3)
       - 0.103427699980723 x(0,0,0,4) - 3.25452048466599e-7 x(1,0,0,4)
       - 0.452762503846439 x(0,0,0,5) - 0.00000865287895560147 x(1,0,0,5)
       - 1.31294420359085 x(0,0,0,6) - 0.000123361554793416 x(1,0,0,6)
       - 2.43386360146189 x(0,0,0,7) - 0.00113470565752511 x(1,0,0,7)
       - 2.95456321735304 x(0,0,0,8) - 0.00743597921634498 x(1,0,0,8)
       - 0.999762588996332 x(0,0,0,9) - 0.0365860337123301 x(1,0,0,9)
       - 0.999999990193157 x(0,0,0,10) - 0.138727831500689 x(1,0,0,10)
       - x(0,0,0,11) - 0.410293261078204 x(1,0,0,11) - x(0,0,0,12)
       - 0.949285652286577 x(1,0,0,12) + 200 z(0,1) + 200 z(0,2) + 200 z(0,3)
       + 200 z(0,4) + 200 z(0,5) + 200 z(0,6) + 200 z(0,7) + 200 z(0,8)
       + 200 z(0,9) + 200 z(0,10) + 200 z(0,11) + 200 z(0,12) + 200 z(0,0)
       + 10 YY(0,0,0) + 10 YY(1,0,0) + [ x(0,0,0,0) ^2 + x(0,0,0,1) ^2
       + x(1,0,0,0) ^2 + x(1,0,0,1) ^2 + x(0,0,0,2) ^2 + x(1,0,0,2) ^2
       + x(0,0,0,3) ^2 + x(1,0,0,3) ^2 + x(0,0,0,4) ^2 + x(1,0,0,4) ^2
       + x(0,0,0,5) ^2 + x(1,0,0,5) ^2 + x(0,0,0,6) ^2 + x(1,0,0,6) ^2
       + x(0,0,0,7) ^2 + x(1,0,0,7) ^2 + x(0,0,0,8) ^2 + x(1,0,0,8) ^2
       + x(0,0,0,9) ^2 + x(1,0,0,9) ^2 + x(0,0,0,10) ^2 + x(1,0,0,10) ^2
       + x(0,0,0,11) ^2 + x(1,0,0,11) ^2 + x(0,0,0,12) ^2 + x(1,0,0,12) ^2
       ] / 2 + 2.98230879053947
Subject To
 b_0000:   x(0,0,0,0) - x(0,0,0,1) <= 0
 b_1000:   x(1,0,0,0) - x(1,0,0,1) <= 0
 b_0001:   x(0,0,0,1) - x(0,0,0,2) <= 0
 b_1001:   x(1,0,0,1) - x(1,0,0,2) <= 0
 b_0002:   x(0,0,0,2) - x(0,0,0,3) <= 0
 b_1002:   x(1,0,0,2) - x(1,0,0,3) <= 0
 b_0003:   x(0,0,0,3) - x(0,0,0,4) <= 0
 b_1003:   x(1,0,0,3) - x(1,0,0,4) <= 0
 b_0004:   x(0,0,0,4) - x(0,0,0,5) <= 0
 b_1004:   x(1,0,0,4) - x(1,0,0,5) <= 0
 b_0005:   x(0,0,0,5) - x(0,0,0,6) <= 0
 b_1005:   x(1,0,0,5) - x(1,0,0,6) <= 0
 b_0006:   x(0,0,0,6) - x(0,0,0,7) <= 0
 b_1006:   x(1,0,0,6) - x(1,0,0,7) <= 0
 b_0007:   x(0,0,0,7) - x(0,0,0,8) <= 0
 b_1007:   x(1,0,0,7) - x(1,0,0,8) <= 0
 b_0008:   x(0,0,0,8) - x(0,0,0,9) <= 0
 b_1008:   x(1,0,0,8) - x(1,0,0,9) <= 0
 b_0009:   x(0,0,0,9) - x(0,0,0,10) <= 0
 b_1009:   x(1,0,0,9) - x(1,0,0,10) <= 0
 b_00010:  x(0,0,0,10) - x(0,0,0,11) <= 0
 b_10010:  x(1,0,0,10) - x(1,0,0,11) <= 0
 b_00011:  x(0,0,0,11) - x(0,0,0,12) <= 0
 b_10011:  x(1,0,0,11) - x(1,0,0,12) <= 0
 c_0000:   - x(0,0,0,0) + x(1,0,0,1) <= 0
 c_0001:   - x(0,0,0,1) + x(1,0,0,2) <= 0
 c_0002:   - x(0,0,0,2) + x(1,0,0,3) <= 0
 c_0003:   - x(0,0,0,3) + x(1,0,0,4) <= 0
 c_0004:   - x(0,0,0,4) + x(1,0,0,5) <= 0
 c_0005:   - x(0,0,0,5) + x(1,0,0,6) <= 0
 c_0006:   - x(0,0,0,6) + x(1,0,0,7) <= 0
 c_0007:   - x(0,0,0,7) + x(1,0,0,8) <= 0
 c_0008:   - x(0,0,0,8) + x(1,0,0,9) <= 0
 c_0009:   - x(0,0,0,9) + x(1,0,0,10) <= 0
 c_00010:  - x(0,0,0,10) + x(1,0,0,11) <= 0
 c_00011:  - x(0,0,0,11) + x(1,0,0,12) <= 0
 d_01:     - x(0,0,0,0) + x(0,0,0,1) - x(1,0,0,0) + x(1,0,0,1) - z(0,1) <= 0
 d_02:     - x(0,0,0,1) - x(1,0,0,1) + x(0,0,0,2) + x(1,0,0,2) - z(0,2) <= 0
 d_03:     - x(0,0,0,2) - x(1,0,0,2) + x(0,0,0,3) + x(1,0,0,3) - z(0,3) <= 0
 d_04:     - x(0,0,0,3) - x(1,0,0,3) + x(0,0,0,4) + x(1,0,0,4) - z(0,4) <= 0
 d_05:     - x(0,0,0,4) - x(1,0,0,4) + x(0,0,0,5) + x(1,0,0,5) - z(0,5) <= 0
 d_06:     - x(0,0,0,5) - x(1,0,0,5) + x(0,0,0,6) + x(1,0,0,6) - z(0,6) <= 0
 d_07:     - x(0,0,0,6) - x(1,0,0,6) + x(0,0,0,7) + x(1,0,0,7) - z(0,7) <= 0
 d_08:     - x(0,0,0,7) - x(1,0,0,7) + x(0,0,0,8) + x(1,0,0,8) - z(0,8) <= 0
 d_09:     - x(0,0,0,8) - x(1,0,0,8) + x(0,0,0,9) + x(1,0,0,9) - z(0,9) <= 0
 d_010:    - x(0,0,0,9) - x(1,0,0,9) + x(0,0,0,10) + x(1,0,0,10) - z(0,10) <= 0
 d_011:    - x(0,0,0,10) - x(1,0,0,10) + x(0,0,0,11) + x(1,0,0,11) - z(0,11)
           <= 0
 d_012:    - x(0,0,0,11) - x(1,0,0,11) + x(0,0,0,12) + x(1,0,0,12) - z(0,12)
           <= 0
 a_e_0000: x(0,0,0,0) - z(0,0) <= 0
 f_0000:   x(0,0,0,0) - x(1,0,0,7) <= 0
 f_0001:   x(0,0,0,1) - x(1,0,0,8) <= 0
 f_0002:   x(0,0,0,2) - x(1,0,0,9) <= 0
 f_0003:   x(0,0,0,3) - x(1,0,0,10) <= 0
 f_0004:   x(0,0,0,4) - x(1,0,0,11) <= 0
 f_0005:   x(0,0,0,5) - x(1,0,0,12) <= 0
 g_000:    x(0,0,0,9)  = 1
 h_1000:   x(1,0,0,0)  = 0
 i_00:     - x(0,0,0,0) + x(0)  = 0
 j_0:      x(0) >= 0
 k_000:    YY(0,0,0) + w(0,0,0,9)  = 1
 l_100:    YY(1,0,0) - 0.5 u(1,0,0,7) - 0.5 v(1,0,0,7) - 0.5 u(1,0,0,8)
           - 0.5 v(1,0,0,8) - 0.5 u(1,0,0,9) - 0.5 v(1,0,0,9) - 0.5 u(1,0,0,10)
           - 0.5 v(1,0,0,10) - 0.5 u(1,0,0,11) - 0.5 v(1,0,0,11)
           - 0.5 u(1,0,0,12) - 0.5 v(1,0,0,12) - 0.5 u(1,0,0,13)
           - 0.5 v(1,0,0,13) - 0.5 u(1,0,0,14) - 0.5 v(1,0,0,14)
           - 0.5 u(1,0,0,15) - 0.5 v(1,0,0,15) - 0.5 u(1,0,0,16)
           - 0.5 v(1,0,0,16) - 0.5 u(1,0,0,17) - 0.5 v(1,0,0,17)
           - 0.5 u(1,0,0,18) - 0.5 v(1,0,0,18) - 0.5 u(1,0,0,19)
           - 0.5 v(1,0,0,19) - 0.5 w(1,0,0,6) - 0.5 w(1,0,0,5) - 0.5 w(1,0,0,4)
           - 0.5 w(1,0,0,3) - 0.5 w(1,0,0,2) - 0.5 w(1,0,0,1) - 0.5 w(1,0,0,0)
            = 0
 m_1007:   y(1,0,0,7) - w(1,0,0,7) + w(0,0,0,0)  = 0
 m_10021:  y(1,0,0,21) - w(1,0,0,21) + w(0,0,0,14)  = 0
 n_0001:   x(0,0,0,0) - x(0,0,0,1) + w(0,0,0,1)  = 0
 n_1001:   x(1,0,0,0) - x(1,0,0,1) + w(1,0,0,1)  = 0
 n_0002:   x(0,0,0,1) - x(0,0,0,2) + w(0,0,0,2)  = 0
 n_1002:   x(1,0,0,1) - x(1,0,0,2) + w(1,0,0,2)  = 0
 n_0003:   x(0,0,0,2) - x(0,0,0,3) + w(0,0,0,3)  = 0
 n_1003:   x(1,0,0,2) - x(1,0,0,3) + w(1,0,0,3)  = 0
 n_0004:   x(0,0,0,3) - x(0,0,0,4) + w(0,0,0,4)  = 0
 n_1004:   x(1,0,0,3) - x(1,0,0,4) + w(1,0,0,4)  = 0
 n_0005:   x(0,0,0,4) - x(0,0,0,5) + w(0,0,0,5)  = 0
 n_1005:   x(1,0,0,4) - x(1,0,0,5) + w(1,0,0,5)  = 0
 n_0006:   x(0,0,0,5) - x(0,0,0,6) + w(0,0,0,6)  = 0
 n_1006:   x(1,0,0,5) - x(1,0,0,6) + w(1,0,0,6)  = 0
 n_0007:   x(0,0,0,6) - x(0,0,0,7) + w(0,0,0,7)  = 0
 n_1007:   x(1,0,0,6) - x(1,0,0,7) + w(1,0,0,7)  = 0
 n_0008:   x(0,0,0,7) - x(0,0,0,8) + w(0,0,0,8)  = 0
 n_1008:   x(1,0,0,7) - x(1,0,0,8) + w(1,0,0,8)  = 0
 n_0009:   x(0,0,0,8) - x(0,0,0,9) + w(0,0,0,9)  = 0
 n_1009:   x(1,0,0,8) - x(1,0,0,9) + w(1,0,0,9)  = 0
 n_00010:  x(0,0,0,9) - x(0,0,0,10) + w(0,0,0,10)  = 0
 n_10010:  x(1,0,0,9) - x(1,0,0,10) + w(1,0,0,10)  = 0
 n_00011:  x(0,0,0,10) - x(0,0,0,11) + w(0,0,0,11)  = 0
 n_10011:  x(1,0,0,10) - x(1,0,0,11) + w(1,0,0,11)  = 0
 n_00012:  x(0,0,0,11) - x(0,0,0,12) + w(0,0,0,12)  = 0
 n_10012:  x(1,0,0,11) - x(1,0,0,12) + w(1,0,0,12)  = 0
 o_0000:   - x(0,0,0,0) + w(0,0,0,0)  = 0
 o_1000:   - x(1,0,0,0) + w(1,0,0,0)  = 0
 p_00013:  w(0,0,0,13)  = 0
 p_00014:  w(0,0,0,14)  = 0
 p_00015:  w(0,0,0,15)  = 0
 p_00016:  w(0,0,0,16)  = 0
 p_00017:  w(0,0,0,17)  = 0
 p_00018:  w(0,0,0,18)  = 0
 p_00019:  w(0,0,0,19)  = 0
 p_00020:  w(0,0,0,20)  = 0
 p_00021:  w(0,0,0,21)  = 0
 p_10013:  w(1,0,0,13)  = 0
 p_10014:  w(1,0,0,14)  = 0
 p_10015:  w(1,0,0,15)  = 0
 p_10016:  w(1,0,0,16)  = 0
 p_10017:  w(1,0,0,17)  = 0
 p_10018:  w(1,0,0,18)  = 0
 p_10019:  w(1,0,0,19)  = 0
 p_10020:  w(1,0,0,20)  = 0
 p_10021:  w(1,0,0,21)  = 0
 r_0000:   y(0,0,0,0) - u(0,0,0,0) + v(0,0,0,0)  = 0
 s_0000:   u(0,0,0,0) + v(0,0,0,0) <= 1
 r_1000:   y(1,0,0,0) - u(1,0,0,0) + v(1,0,0,0)  = 0
 s_1000:   u(1,0,0,0) + v(1,0,0,0) <= 1
 r_0001:   y(0,0,0,1) - u(0,0,0,1) + v(0,0,0,1)  = 0
 s_0001:   u(0,0,0,1) + v(0,0,0,1) <= 1
 r_1001:   y(1,0,0,1) - u(1,0,0,1) + v(1,0,0,1)  = 0
 s_1001:   u(1,0,0,1) + v(1,0,0,1) <= 1
 r_0002:   y(0,0,0,2) - u(0,0,0,2) + v(0,0,0,2)  = 0
 s_0002:   u(0,0,0,2) + v(0,0,0,2) <= 1
 r_1002:   y(1,0,0,2) - u(1,0,0,2) + v(1,0,0,2)  = 0
 s_1002:   u(1,0,0,2) + v(1,0,0,2) <= 1
 r_0003:   y(0,0,0,3) - u(0,0,0,3) + v(0,0,0,3)  = 0
 s_0003:   u(0,0,0,3) + v(0,0,0,3) <= 1
 r_1003:   y(1,0,0,3) - u(1,0,0,3) + v(1,0,0,3)  = 0
 s_1003:   u(1,0,0,3) + v(1,0,0,3) <= 1
 r_0004:   y(0,0,0,4) - u(0,0,0,4) + v(0,0,0,4)  = 0
 s_0004:   u(0,0,0,4) + v(0,0,0,4) <= 1
 r_1004:   y(1,0,0,4) - u(1,0,0,4) + v(1,0,0,4)  = 0
 s_1004:   u(1,0,0,4) + v(1,0,0,4) <= 1
 r_0005:   y(0,0,0,5) - u(0,0,0,5) + v(0,0,0,5)  = 0
 s_0005:   u(0,0,0,5) + v(0,0,0,5) <= 1
 r_1005:   y(1,0,0,5) - u(1,0,0,5) + v(1,0,0,5)  = 0
 s_1005:   u(1,0,0,5) + v(1,0,0,5) <= 1
 r_0006:   y(0,0,0,6) - u(0,0,0,6) + v(0,0,0,6)  = 0
 s_0006:   u(0,0,0,6) + v(0,0,0,6) <= 1
 r_1006:   y(1,0,0,6) - u(1,0,0,6) + v(1,0,0,6)  = 0
 s_1006:   u(1,0,0,6) + v(1,0,0,6) <= 1
 r_0007:   y(0,0,0,7) - u(0,0,0,7) + v(0,0,0,7)  = 0
 s_0007:   u(0,0,0,7) + v(0,0,0,7) <= 1
 r_1007:   - u(1,0,0,7) + v(1,0,0,7) + y(1,0,0,7)  = 0
 s_1007:   u(1,0,0,7) + v(1,0,0,7) <= 1
 r_0008:   y(0,0,0,8) - u(0,0,0,8) + v(0,0,0,8)  = 0
 s_0008:   u(0,0,0,8) + v(0,0,0,8) <= 1
 r_1008:   - u(1,0,0,8) + v(1,0,0,8) + y(1,0,0,8)  = 0
 s_1008:   u(1,0,0,8) + v(1,0,0,8) <= 1
 r_0009:   y(0,0,0,9) - u(0,0,0,9) + v(0,0,0,9)  = 0
 s_0009:   u(0,0,0,9) + v(0,0,0,9) <= 1
 r_1009:   - u(1,0,0,9) + v(1,0,0,9) + y(1,0,0,9)  = 0
 s_1009:   u(1,0,0,9) + v(1,0,0,9) <= 1
 r_00010:  y(0,0,0,10) - u(0,0,0,10) + v(0,0,0,10)  = 0
 s_00010:  u(0,0,0,10) + v(0,0,0,10) <= 1
 r_10010:  - u(1,0,0,10) + v(1,0,0,10) + y(1,0,0,10)  = 0
 s_10010:  u(1,0,0,10) + v(1,0,0,10) <= 1
 r_00011:  y(0,0,0,11) - u(0,0,0,11) + v(0,0,0,11)  = 0
 s_00011:  u(0,0,0,11) + v(0,0,0,11) <= 1
 r_10011:  - u(1,0,0,11) + v(1,0,0,11) + y(1,0,0,11)  = 0
 s_10011:  u(1,0,0,11) + v(1,0,0,11) <= 1
 r_00012:  y(0,0,0,12) - u(0,0,0,12) + v(0,0,0,12)  = 0
 s_00012:  u(0,0,0,12) + v(0,0,0,12) <= 1
 r_10012:  - u(1,0,0,12) + v(1,0,0,12) + y(1,0,0,12)  = 0
 s_10012:  u(1,0,0,12) + v(1,0,0,12) <= 1
 r_00013:  y(0,0,0,13) - u(0,0,0,13) + v(0,0,0,13)  = 0
 s_00013:  u(0,0,0,13) + v(0,0,0,13) <= 1
 r_10013:  - u(1,0,0,13) + v(1,0,0,13) + y(1,0,0,13)  = 0
 s_10013:  u(1,0,0,13) + v(1,0,0,13) <= 1
 r_00014:  y(0,0,0,14) - u(0,0,0,14) + v(0,0,0,14)  = 0
 s_00014:  u(0,0,0,14) + v(0,0,0,14) <= 1
 r_10014:  - u(1,0,0,14) + v(1,0,0,14) + y(1,0,0,14)  = 0
 s_10014:  u(1,0,0,14) + v(1,0,0,14) <= 1
 r_00015:  y(0,0,0,15) - u(0,0,0,15) + v(0,0,0,15)  = 0
 s_00015:  u(0,0,0,15) + v(0,0,0,15) <= 1
 r_10015:  - u(1,0,0,15) + v(1,0,0,15) + y(1,0,0,15)  = 0
 s_10015:  u(1,0,0,15) + v(1,0,0,15) <= 1
 r_00016:  y(0,0,0,16) - u(0,0,0,16) + v(0,0,0,16)  = 0
 s_00016:  u(0,0,0,16) + v(0,0,0,16) <= 1
 r_10016:  - u(1,0,0,16) + v(1,0,0,16) + y(1,0,0,16)  = 0
 s_10016:  u(1,0,0,16) + v(1,0,0,16) <= 1
 r_00017:  y(0,0,0,17) - u(0,0,0,17) + v(0,0,0,17)  = 0
 s_00017:  u(0,0,0,17) + v(0,0,0,17) <= 1
 r_10017:  - u(1,0,0,17) + v(1,0,0,17) + y(1,0,0,17)  = 0
 s_10017:  u(1,0,0,17) + v(1,0,0,17) <= 1
 r_00018:  y(0,0,0,18) - u(0,0,0,18) + v(0,0,0,18)  = 0
 s_00018:  u(0,0,0,18) + v(0,0,0,18) <= 1
 r_10018:  - u(1,0,0,18) + v(1,0,0,18) + y(1,0,0,18)  = 0
 s_10018:  u(1,0,0,18) + v(1,0,0,18) <= 1
 r_00019:  y(0,0,0,19) - u(0,0,0,19) + v(0,0,0,19)  = 0
 s_00019:  u(0,0,0,19) + v(0,0,0,19) <= 1
 r_10019:  - u(1,0,0,19) + v(1,0,0,19) + y(1,0,0,19)  = 0
 s_10019:  u(1,0,0,19) + v(1,0,0,19) <= 1
 r_00020:  y(0,0,0,20) - u(0,0,0,20) + v(0,0,0,20)  = 0
 s_00020:  u(0,0,0,20) + v(0,0,0,20) <= 1
 r_10020:  y(1,0,0,20) - u(1,0,0,20) + v(1,0,0,20)  = 0
 s_10020:  u(1,0,0,20) + v(1,0,0,20) <= 1
 r_00021:  y(0,0,0,21) - u(0,0,0,21) + v(0,0,0,21)  = 0
 s_00021:  u(0,0,0,21) + v(0,0,0,21) <= 1
 r_10021:  y(1,0,0,21) - u(1,0,0,21) + v(1,0,0,21)  = 0
 s_10021:  u(1,0,0,21) + v(1,0,0,21) <= 1
Bounds
 0 <= x(0,0,0,0) <= 1
 0 <= x(0,0,0,1) <= 1
 0 <= x(1,0,0,0) <= 1
 0 <= x(1,0,0,1) <= 1
 0 <= x(0,0,0,2) <= 1
 0 <= x(1,0,0,2) <= 1
 0 <= x(0,0,0,3) <= 1
 0 <= x(1,0,0,3) <= 1
 0 <= x(0,0,0,4) <= 1
 0 <= x(1,0,0,4) <= 1
 0 <= x(0,0,0,5) <= 1
 0 <= x(1,0,0,5) <= 1
 0 <= x(0,0,0,6) <= 1
 0 <= x(1,0,0,6) <= 1
 0 <= x(0,0,0,7) <= 1
 0 <= x(1,0,0,7) <= 1
 0 <= x(0,0,0,8) <= 1
 0 <= x(1,0,0,8) <= 1
 0 <= x(0,0,0,9) <= 1
 0 <= x(1,0,0,9) <= 1
 0 <= x(0,0,0,10) <= 1
 0 <= x(1,0,0,10) <= 1
 0 <= x(0,0,0,11) <= 1
 0 <= x(1,0,0,11) <= 1
 0 <= x(0,0,0,12) <= 1
 0 <= x(1,0,0,12) <= 1
 0 <= z(0,1) <= 1
 0 <= z(0,2) <= 1
 0 <= z(0,3) <= 1
 0 <= z(0,4) <= 1
 0 <= z(0,5) <= 1
 0 <= z(0,6) <= 1
 0 <= z(0,7) <= 1
 0 <= z(0,8) <= 1
 0 <= z(0,9) <= 1
 0 <= z(0,10) <= 1
 0 <= z(0,11) <= 1
 0 <= z(0,12) <= 1
 0 <= z(0,0) <= 1
 0 <= x(0) <= 1
 0 <= YY(0,0,0) <= 1
 0 <= w(0,0,0,9) <= 1
 0 <= YY(1,0,0) <= 1
 0 <= u(1,0,0,7) <= 1
 0 <= v(1,0,0,7) <= 1
 0 <= u(1,0,0,8) <= 1
 0 <= v(1,0,0,8) <= 1
 0 <= u(1,0,0,9) <= 1
 0 <= v(1,0,0,9) <= 1
 0 <= u(1,0,0,10) <= 1
 0 <= v(1,0,0,10) <= 1
 0 <= u(1,0,0,11) <= 1
 0 <= v(1,0,0,11) <= 1
 0 <= u(1,0,0,12) <= 1
 0 <= v(1,0,0,12) <= 1
 0 <= u(1,0,0,13) <= 1
 0 <= v(1,0,0,13) <= 1
 0 <= u(1,0,0,14) <= 1
 0 <= v(1,0,0,14) <= 1
 0 <= u(1,0,0,15) <= 1
 0 <= v(1,0,0,15) <= 1
 0 <= u(1,0,0,16) <= 1
 0 <= v(1,0,0,16) <= 1
 0 <= u(1,0,0,17) <= 1
 0 <= v(1,0,0,17) <= 1
 0 <= u(1,0,0,18) <= 1
 0 <= v(1,0,0,18) <= 1
 0 <= u(1,0,0,19) <= 1
 0 <= v(1,0,0,19) <= 1
 0 <= w(1,0,0,6) <= 1
 0 <= w(1,0,0,5) <= 1
 0 <= w(1,0,0,4) <= 1
 0 <= w(1,0,0,3) <= 1
 0 <= w(1,0,0,2) <= 1
 0 <= w(1,0,0,1) <= 1
 0 <= w(1,0,0,0) <= 1
 0 <= y(1,0,0,7) <= 1
 0 <= w(1,0,0,7) <= 1
 0 <= w(0,0,0,0) <= 1
 0 <= y(1,0,0,21) <= 1
 0 <= w(1,0,0,21) <= 1
 0 <= w(0,0,0,14) <= 1
 0 <= w(0,0,0,1) <= 1
 0 <= w(0,0,0,2) <= 1
 0 <= w(0,0,0,3) <= 1
 0 <= w(0,0,0,4) <= 1
 0 <= w(0,0,0,5) <= 1
 0 <= w(0,0,0,6) <= 1
 0 <= w(0,0,0,7) <= 1
 0 <= w(0,0,0,8) <= 1
 0 <= w(1,0,0,8) <= 1
 0 <= w(1,0,0,9) <= 1
 0 <= w(0,0,0,10) <= 1
 0 <= w(1,0,0,10) <= 1
 0 <= w(0,0,0,11) <= 1
 0 <= w(1,0,0,11) <= 1
 0 <= w(0,0,0,12) <= 1
 0 <= w(1,0,0,12) <= 1
 0 <= w(0,0,0,13) <= 1
 0 <= w(0,0,0,15) <= 1
 0 <= w(0,0,0,16) <= 1
 0 <= w(0,0,0,17) <= 1
 0 <= w(0,0,0,18) <= 1
 0 <= w(0,0,0,19) <= 1
 0 <= w(0,0,0,20) <= 1
 0 <= w(0,0,0,21) <= 1
 0 <= w(1,0,0,13) <= 1
 0 <= w(1,0,0,14) <= 1
 0 <= w(1,0,0,15) <= 1
 0 <= w(1,0,0,16) <= 1
 0 <= w(1,0,0,17) <= 1
 0 <= w(1,0,0,18) <= 1
 0 <= w(1,0,0,19) <= 1
 0 <= w(1,0,0,20) <= 1
 0 <= y(0,0,0,0) <= 1
 0 <= u(0,0,0,0) <= 1
 0 <= v(0,0,0,0) <= 1
 0 <= y(1,0,0,0) <= 1
 0 <= u(1,0,0,0) <= 1
 0 <= v(1,0,0,0) <= 1
 0 <= y(0,0,0,1) <= 1
 0 <= u(0,0,0,1) <= 1
 0 <= v(0,0,0,1) <= 1
 0 <= y(1,0,0,1) <= 1
 0 <= u(1,0,0,1) <= 1
 0 <= v(1,0,0,1) <= 1
 0 <= y(0,0,0,2) <= 1
 0 <= u(0,0,0,2) <= 1
 0 <= v(0,0,0,2) <= 1
 0 <= y(1,0,0,2) <= 1
 0 <= u(1,0,0,2) <= 1
 0 <= v(1,0,0,2) <= 1
 0 <= y(0,0,0,3) <= 1
 0 <= u(0,0,0,3) <= 1
 0 <= v(0,0,0,3) <= 1
 0 <= y(1,0,0,3) <= 1
 0 <= u(1,0,0,3) <= 1
 0 <= v(1,0,0,3) <= 1
 0 <= y(0,0,0,4) <= 1
 0 <= u(0,0,0,4) <= 1
 0 <= v(0,0,0,4) <= 1
 0 <= y(1,0,0,4) <= 1
 0 <= u(1,0,0,4) <= 1
 0 <= v(1,0,0,4) <= 1
 0 <= y(0,0,0,5) <= 1
 0 <= u(0,0,0,5) <= 1
 0 <= v(0,0,0,5) <= 1
 0 <= y(1,0,0,5) <= 1
 0 <= u(1,0,0,5) <= 1
 0 <= v(1,0,0,5) <= 1
 0 <= y(0,0,0,6) <= 1
 0 <= u(0,0,0,6) <= 1
 0 <= v(0,0,0,6) <= 1
 0 <= y(1,0,0,6) <= 1
 0 <= u(1,0,0,6) <= 1
 0 <= v(1,0,0,6) <= 1
 0 <= y(0,0,0,7) <= 1
 0 <= u(0,0,0,7) <= 1
 0 <= v(0,0,0,7) <= 1
 0 <= y(0,0,0,8) <= 1
 0 <= u(0,0,0,8) <= 1
 0 <= v(0,0,0,8) <= 1
 0 <= y(1,0,0,8) <= 1
 0 <= y(0,0,0,9) <= 1
 0 <= u(0,0,0,9) <= 1
 0 <= v(0,0,0,9) <= 1
 0 <= y(1,0,0,9) <= 1
 0 <= y(0,0,0,10) <= 1
 0 <= u(0,0,0,10) <= 1
 0 <= v(0,0,0,10) <= 1
 0 <= y(1,0,0,10) <= 1
 0 <= y(0,0,0,11) <= 1
 0 <= u(0,0,0,11) <= 1
 0 <= v(0,0,0,11) <= 1
 0 <= y(1,0,0,11) <= 1
 0 <= y(0,0,0,12) <= 1
 0 <= u(0,0,0,12) <= 1
 0 <= v(0,0,0,12) <= 1
 0 <= y(1,0,0,12) <= 1
 0 <= y(0,0,0,13) <= 1
 0 <= u(0,0,0,13) <= 1
 0 <= v(0,0,0,13) <= 1
 0 <= y(1,0,0,13) <= 1
 0 <= y(0,0,0,14) <= 1
 0 <= u(0,0,0,14) <= 1
 0 <= v(0,0,0,14) <= 1
 0 <= y(1,0,0,14) <= 1
 0 <= y(0,0,0,15) <= 1
 0 <= u(0,0,0,15) <= 1
 0 <= v(0,0,0,15) <= 1
 0 <= y(1,0,0,15) <= 1
 0 <= y(0,0,0,16) <= 1
 0 <= u(0,0,0,16) <= 1
 0 <= v(0,0,0,16) <= 1
 0 <= y(1,0,0,16) <= 1
 0 <= y(0,0,0,17) <= 1
 0 <= u(0,0,0,17) <= 1
 0 <= v(0,0,0,17) <= 1
 0 <= y(1,0,0,17) <= 1
 0 <= y(0,0,0,18) <= 1
 0 <= u(0,0,0,18) <= 1
 0 <= v(0,0,0,18) <= 1
 0 <= y(1,0,0,18) <= 1
 0 <= y(0,0,0,19) <= 1
 0 <= u(0,0,0,19) <= 1
 0 <= v(0,0,0,19) <= 1
 0 <= y(1,0,0,19) <= 1
 0 <= y(0,0,0,20) <= 1
 0 <= u(0,0,0,20) <= 1
 0 <= v(0,0,0,20) <= 1
 0 <= y(1,0,0,20) <= 1
 0 <= u(1,0,0,20) <= 1
 0 <= v(1,0,0,20) <= 1
 0 <= y(0,0,0,21) <= 1
 0 <= u(0,0,0,21) <= 1
 0 <= v(0,0,0,21) <= 1
 0 <= u(1,0,0,21) <= 1
 0 <= v(1,0,0,21) <= 1
Binaries
 x(0,0,0,0)  x(0,0,0,1)  x(1,0,0,0)  x(1,0,0,1)  x(0,0,0,2)  x(1,0,0,2) 
 x(0,0,0,3)  x(1,0,0,3)  x(0,0,0,4)  x(1,0,0,4)  x(0,0,0,5)  x(1,0,0,5) 
 x(0,0,0,6)  x(1,0,0,6)  x(0,0,0,7)  x(1,0,0,7)  x(0,0,0,8)  x(1,0,0,8) 
 x(0,0,0,9)  x(1,0,0,9)  x(0,0,0,10)  x(1,0,0,10)  x(0,0,0,11)  x(1,0,0,11) 
 x(0,0,0,12)  x(1,0,0,12)  z(0,1)  z(0,2)  z(0,3)  z(0,4)  z(0,5)  z(0,6) 
 z(0,7)  z(0,8)  z(0,9)  z(0,10)  z(0,11)  z(0,12)  z(0,0)  x(0)  YY(0,0,0) 
 w(0,0,0,9)  YY(1,0,0)  u(1,0,0,7)  v(1,0,0,7)  u(1,0,0,8)  v(1,0,0,8) 
 u(1,0,0,9)  v(1,0,0,9)  u(1,0,0,10)  v(1,0,0,10)  u(1,0,0,11)  v(1,0,0,11) 
 u(1,0,0,12)  v(1,0,0,12)  u(1,0,0,13)  v(1,0,0,13)  u(1,0,0,14)  v(1,0,0,14) 
 u(1,0,0,15)  v(1,0,0,15)  u(1,0,0,16)  v(1,0,0,16)  u(1,0,0,17)  v(1,0,0,17) 
 u(1,0,0,18)  v(1,0,0,18)  u(1,0,0,19)  v(1,0,0,19)  w(1,0,0,6)  w(1,0,0,5) 
 w(1,0,0,4)  w(1,0,0,3)  w(1,0,0,2)  w(1,0,0,1)  w(1,0,0,0)  y(1,0,0,7) 
 w(1,0,0,7)  w(0,0,0,0)  y(1,0,0,21)  w(1,0,0,21)  w(0,0,0,14)  w(0,0,0,1) 
 w(0,0,0,2)  w(0,0,0,3)  w(0,0,0,4)  w(0,0,0,5)  w(0,0,0,6)  w(0,0,0,7) 
 w(0,0,0,8)  w(1,0,0,8)  w(1,0,0,9)  w(0,0,0,10)  w(1,0,0,10)  w(0,0,0,11) 
 w(1,0,0,11)  w(0,0,0,12)  w(1,0,0,12)  w(0,0,0,13)  w(0,0,0,15)  w(0,0,0,16) 
 w(0,0,0,17)  w(0,0,0,18)  w(0,0,0,19)  w(0,0,0,20)  w(0,0,0,21)  w(1,0,0,13) 
 w(1,0,0,14)  w(1,0,0,15)  w(1,0,0,16)  w(1,0,0,17)  w(1,0,0,18)  w(1,0,0,19) 
 w(1,0,0,20)  y(0,0,0,0)  u(0,0,0,0)  v(0,0,0,0)  y(1,0,0,0)  u(1,0,0,0) 
 v(1,0,0,0)  y(0,0,0,1)  u(0,0,0,1)  v(0,0,0,1)  y(1,0,0,1)  u(1,0,0,1) 
 v(1,0,0,1)  y(0,0,0,2)  u(0,0,0,2)  v(0,0,0,2)  y(1,0,0,2)  u(1,0,0,2) 
 v(1,0,0,2)  y(0,0,0,3)  u(0,0,0,3)  v(0,0,0,3)  y(1,0,0,3)  u(1,0,0,3) 
 v(1,0,0,3)  y(0,0,0,4)  u(0,0,0,4)  v(0,0,0,4)  y(1,0,0,4)  u(1,0,0,4) 
 v(1,0,0,4)  y(0,0,0,5)  u(0,0,0,5)  v(0,0,0,5)  y(1,0,0,5)  u(1,0,0,5) 
 v(1,0,0,5)  y(0,0,0,6)  u(0,0,0,6)  v(0,0,0,6)  y(1,0,0,6)  u(1,0,0,6) 
 v(1,0,0,6)  y(0,0,0,7)  u(0,0,0,7)  v(0,0,0,7)  y(0,0,0,8)  u(0,0,0,8) 
 v(0,0,0,8)  y(1,0,0,8)  y(0,0,0,9)  u(0,0,0,9)  v(0,0,0,9)  y(1,0,0,9) 
 y(0,0,0,10)  u(0,0,0,10)  v(0,0,0,10)  y(1,0,0,10)  y(0,0,0,11)  u(0,0,0,11) 
 v(0,0,0,11)  y(1,0,0,11)  y(0,0,0,12)  u(0,0,0,12)  v(0,0,0,12)  y(1,0,0,12) 
 y(0,0,0,13)  u(0,0,0,13)  v(0,0,0,13)  y(1,0,0,13)  y(0,0,0,14)  u(0,0,0,14) 
 v(0,0,0,14)  y(1,0,0,14)  y(0,0,0,15)  u(0,0,0,15)  v(0,0,0,15)  y(1,0,0,15) 
 y(0,0,0,16)  u(0,0,0,16)  v(0,0,0,16)  y(1,0,0,16)  y(0,0,0,17)  u(0,0,0,17) 
 v(0,0,0,17)  y(1,0,0,17)  y(0,0,0,18)  u(0,0,0,18)  v(0,0,0,18)  y(1,0,0,18) 
 y(0,0,0,19)  u(0,0,0,19)  v(0,0,0,19)  y(1,0,0,19)  y(0,0,0,20)  u(0,0,0,20) 
 v(0,0,0,20)  y(1,0,0,20)  u(1,0,0,20)  v(1,0,0,20)  y(0,0,0,21)  u(0,0,0,21) 
 v(0,0,0,21)  u(1,0,0,21)  v(1,0,0,21) 
End
